788 908 433 553
849 969 392 512
765 885 391 511
746 866 397 517
824 944 400 520
711 831 360 477
884 1004 360 444
840 960 443 563
823 943 416 536
956 1076 409 529
887 1007 454 574
782 902 440 560
795 915 386 506
804 924 406 526
807 927 461 581
744 864 422 542
841 961 429 549
863 983 369 489
841 961 360 473
849 969 462 582
739 859 360 451
802 922 445 565
951 1071 424 544
785 905 367 487
811 931 428 548
866 986 360 478
889 1009 372 492
920 1040 416 536
716 836 382 502
810 930 470 590
